/* Objective function */

min : 6X12 + 4X13 + 9X14 + 7X15 + 8X16 + 6X21 + 11X23 + 10X24 + 12X25 + 7X26 + 5X31 + 11X32 + 3X34 + 7X35 + 15X36 + 9X41 + 10X42 + 3X43 + 3X45 + 16X46 + 7X51 + 12X52 + 7X53 + 3X54 + 14X56 + 8X61 + 7X62 + 15X63 + 16X64 + 14X65 + 12X1A + 15X1B + 17X1C + 14X2A + 9X2B + 10X2C + 13X3A + 20X3B +11X3C + 17X4A + 16X4B + 19X4C + 7X5A + 14X5B + 12X5C + 22X6A + 16X6B + 18X6C + 12XAB + 10XAB + 12XBA + 15XBC + 10XCA + 10XCB; 


/* Constraints */

X12 + X13 + X14 + X15 + X16 = 35;
X21 + X23 + X24 + X25 + X26 = 26;
X31 + X32 + X34 + X35 + X36 = 42;
X41 + X42 + X43 + X45 + X46 = 53;
X51 + X52 + X53 + X54 + X56 = 29;
X61 + X62 + X63 + X64 + X65 = 38;
X71 + X72 + X73 + X74 + X75 + X76 = 27;


X21 + X31 + X41 + X51 + X61 + X71 = X1A + X1B + X1C; 
X12 + X32 + X42 + X52 + X62 + X72 = X2A + X2B + X2C;
X13 + X23 + X43 + X53 + X63 + X73 = X3A + X3B + X3C;
X14 + X24 + X34 + X54 + X64 + X74 = X4A + X4B + X4C;
X15 + X25 + X35 + X45 + X65 + X75 = X5A + X5B + X5C;
X16 + X26 + X36 + X46 + X56 + X76 = X6A + X6B + X6C;


X1A + X2A + X3A + X4A + X5A + X6A + XBA + XCA = 65;
X1B + X2B + X3B + X4B + X5B + X6B + XAB + XCB = 80;
X1C + X2C + X3C + X4C + X5C + X6C + XAC + XBC = 105;